(set-logic QF_S)
(set-option :produce-models true)

(declare-fun v6 () String)
(declare-fun v7 () String)
(declare-fun v8 () String)
(declare-fun v9 () String)
(declare-fun v30 () String)
(declare-fun v32 () String)
(declare-fun v10 () String)
(declare-fun v31 () String)
(declare-fun v12 () String)
(declare-fun v11 () String)
(declare-fun v14 () String)
(declare-fun v13 () String)
(declare-fun v16 () String)
(declare-fun v15 () String)
(declare-fun v18 () String)
(declare-fun v17 () String)
(declare-fun v19 () String)
(declare-fun v21 () String)
(declare-fun v20 () String)
(declare-fun v23 () String)
(declare-fun v22 () String)
(declare-fun v25 () String)
(declare-fun v24 () String)
(declare-fun v0 () String)
(declare-fun v27 () String)
(declare-fun v1 () String)
(declare-fun v26 () String)
(declare-fun v2 () String)
(declare-fun v29 () String)
(declare-fun v3 () String)
(declare-fun v28 () String)
(declare-fun v4 () String)
(declare-fun v5 () String)

(assert (= v0 "A"))
(assert (= v1 "A"))
(assert (= v2 "A"))
(assert (= v3 "A"))
(assert (= v4 "A"))
(assert (= v5 "A"))
(assert (= v6 "A"))
(assert (= v7 "A"))
(assert (= v8 v8))
(assert (= v9 v9))
(assert (= v10 (str.++ v11 v0)))
(assert (= v12 (str.++ v13 v1)))
(assert (= v14 (str.++ v15 v2)))
(assert (= v16 (str.++ v17 v3)))
(assert (= v18 (str.++ v19 v4)))
(assert (= v20 (str.++ v21 v5)))
(assert (= v22 (str.++ v23 v6)))
(assert (= v24 (str.++ v25 v7)))
(assert (= v26 (str.++ v12 v27)))
(assert (= v27 (str.++ v14 v28)))
(assert (= v28 (str.++ v16 v29)))
(assert (= v29 (str.++ v18 v30)))
(assert (= v30 (str.++ v20 v31)))
(assert (= v31 (str.++ v22 v32)))
(assert (= v32 (str.++ v24 v8)))
(assert (= v9 (str.++ v10 v26)))
(assert (not (str.in.re v11 (str.to.re "A"))))
(assert (not (str.in.re v13 (str.to.re "A"))))
(assert (not (str.in.re v15 (str.to.re "A"))))
(assert (not (str.in.re v17 (str.to.re "A"))))
(assert (not (str.in.re v19 (str.to.re "A"))))
(assert (not (str.in.re v21 (str.to.re "A"))))
(assert (not (str.in.re v23 (str.to.re "A"))))
(assert (not (str.in.re v25 (str.to.re "A"))))

(check-sat)
(get-model)
